
Gurobi 8.1.1 (win64, Python) logging started 04/27/20 12:20:47

Academic license - for non-commercial use only

Gurobi 8.1.1 (win64, Python) logging started 04/29/20 11:47:43

Academic license - for non-commercial use only
Optimize a model with 315 rows, 1550 columns and 3600 nonzeros
Variable types: 1370 continuous, 180 integer (0 binary)
Coefficient statistics:
  Matrix range     [1e+00, 7e+03]
  Objective range  [2e-02, 1e-01]
  Bounds range     [0e+00, 0e+00]
  RHS range        [7e+05, 3e+09]
Warning: Model contains large rhs
         Consider reformulating model or setting NumericFocus parameter
         to avoid numerical issues.
Found heuristic solution: objective -2.07464e+10
Presolve removed 315 rows and 1550 columns
Presolve time: 0.02s
Presolve: All rows and columns removed

Explored 0 nodes (0 simplex iterations) in 0.05 seconds
Thread count was 1 (of 4 available processors)

Solution count 2: -1.63811e+10 -2.07464e+10 

Optimal solution found (tolerance 1.00e-04)
Best objective -1.638113751773e+10, best bound -1.638113751773e+10, gap 0.0000%
Optimize a model with 315 rows, 1550 columns and 3600 nonzeros
Variable types: 1370 continuous, 180 integer (0 binary)
Coefficient statistics:
  Matrix range     [1e+00, 7e+03]
  Objective range  [1e-02, 9e-02]
  Bounds range     [0e+00, 0e+00]
  RHS range        [7e+05, 3e+09]
Warning: Model contains large rhs
         Consider reformulating model or setting NumericFocus parameter
         to avoid numerical issues.
Found heuristic solution: objective -1.88603e+10
Presolve removed 315 rows and 1550 columns
Presolve time: 0.00s
Presolve: All rows and columns removed

Explored 0 nodes (0 simplex iterations) in 0.03 seconds
Thread count was 1 (of 4 available processors)

Solution count 2: -1.48919e+10 -1.88603e+10 

Optimal solution found (tolerance 1.00e-04)
Best objective -1.489194319793e+10, best bound -1.489194319793e+10, gap 0.0000%
Optimize a model with 315 rows, 1550 columns and 3600 nonzeros
Variable types: 1370 continuous, 180 integer (0 binary)
Coefficient statistics:
  Matrix range     [1e+00, 8e+03]
  Objective range  [2e-02, 8e-02]
  Bounds range     [0e+00, 0e+00]
  RHS range        [7e+05, 3e+09]
Warning: Model contains large rhs
         Consider reformulating model or setting NumericFocus parameter
         to avoid numerical issues.
Found heuristic solution: objective -2.17877e+10
Presolve removed 315 rows and 1550 columns
Presolve time: 0.00s
Presolve: All rows and columns removed

Explored 0 nodes (0 simplex iterations) in 0.03 seconds
Thread count was 1 (of 4 available processors)

Solution count 2: -1.69704e+10 -2.17877e+10 

Optimal solution found (tolerance 1.00e-04)
Best objective -1.697037633702e+10, best bound -1.697037633702e+10, gap 0.0000%
Optimize a model with 315 rows, 1670 columns and 3600 nonzeros
Variable types: 1370 continuous, 300 integer (0 binary)
Coefficient statistics:
  Matrix range     [1e+00, 5e+03]
  Objective range  [2e-02, 8e-02]
  Bounds range     [0e+00, 0e+00]
  RHS range        [7e+05, 3e+08]
Found heuristic solution: objective -2.13570e+09
Presolve removed 315 rows and 1670 columns
Presolve time: 0.01s
Presolve: All rows and columns removed

Explored 0 nodes (0 simplex iterations) in 0.03 seconds
Thread count was 1 (of 4 available processors)

Solution count 2: 7.50157e+08 -2.1357e+09 

Optimal solution found (tolerance 1.00e-04)
Best objective 7.501566071193e+08, best bound 7.501566071193e+08, gap 0.0000%
Optimize a model with 315 rows, 1550 columns and 3600 nonzeros
Variable types: 1370 continuous, 180 integer (0 binary)
Coefficient statistics:
  Matrix range     [1e+00, 7e+03]
  Objective range  [2e-02, 1e-01]
  Bounds range     [0e+00, 0e+00]
  RHS range        [7e+05, 3e+08]
Found heuristic solution: objective -2.09731e+09
Presolve removed 315 rows and 1550 columns
Presolve time: 0.00s
Presolve: All rows and columns removed

Explored 0 nodes (0 simplex iterations) in 0.03 seconds
Thread count was 1 (of 4 available processors)

Solution count 2: 2.17664e+09 -2.09731e+09 

Optimal solution found (tolerance 1.00e-04)
Best objective 2.176640373430e+09, best bound 2.176640373430e+09, gap 0.0000%
Optimize a model with 315 rows, 1550 columns and 3600 nonzeros
Variable types: 1370 continuous, 180 integer (0 binary)
Coefficient statistics:
  Matrix range     [1e+00, 7e+03]
  Objective range  [2e-02, 1e-01]
  Bounds range     [0e+00, 0e+00]
  RHS range        [7e+05, 3e+08]
Found heuristic solution: objective -2.09731e+09
Presolve removed 315 rows and 1550 columns
Presolve time: 0.00s
Presolve: All rows and columns removed

Explored 0 nodes (0 simplex iterations) in 0.03 seconds
Thread count was 1 (of 4 available processors)

Solution count 2: 2.17664e+09 -2.09731e+09 

Optimal solution found (tolerance 1.00e-04)
Best objective 2.176640373430e+09, best bound 2.176640373430e+09, gap 0.0000%
Optimize a model with 315 rows, 1550 columns and 3600 nonzeros
Variable types: 1370 continuous, 180 integer (0 binary)
Coefficient statistics:
  Matrix range     [1e+00, 7e+03]
  Objective range  [2e-02, 1e-01]
  Bounds range     [0e+00, 0e+00]
  RHS range        [7e+05, 3e+08]
Found heuristic solution: objective -2.16806e+09
Presolve removed 315 rows and 1550 columns
Presolve time: 0.00s
Presolve: All rows and columns removed

Explored 0 nodes (0 simplex iterations) in 0.03 seconds
Thread count was 1 (of 4 available processors)

Solution count 2: 1.91691e+09 -2.16806e+09 

Optimal solution found (tolerance 1.00e-04)
Best objective 1.916912899583e+09, best bound 1.916912899583e+09, gap 0.0000%
Optimize a model with 354 rows, 1550 columns and 3756 nonzeros
Variable types: 1370 continuous, 180 integer (0 binary)
Coefficient statistics:
  Matrix range     [1e+00, 7e+03]
  Objective range  [2e-02, 1e-01]
  Bounds range     [0e+00, 0e+00]
  RHS range        [7e+04, 3e+08]
Presolve removed 354 rows and 1550 columns
Presolve time: 0.01s
Presolve: All rows and columns removed

Explored 0 nodes (0 simplex iterations) in 0.03 seconds
Thread count was 1 (of 4 available processors)

Solution count 1: 1.17389e+09 

Optimal solution found (tolerance 1.00e-04)
Best objective 1.173887739803e+09, best bound 1.173887739803e+09, gap 0.0000%
Optimize a model with 471 rows, 1550 columns and 3756 nonzeros
Variable types: 1370 continuous, 180 integer (0 binary)
Coefficient statistics:
  Matrix range     [1e+00, 7e+03]
  Objective range  [2e-02, 1e-01]
  Bounds range     [0e+00, 0e+00]
  RHS range        [2e+04, 3e+08]
Presolve removed 471 rows and 1550 columns
Presolve time: 0.00s
Presolve: All rows and columns removed

Explored 0 nodes (0 simplex iterations) in 0.02 seconds
Thread count was 1 (of 4 available processors)

Solution count 1: 4.98897e+08 

Optimal solution found (tolerance 1.00e-04)
Best objective 4.988971884325e+08, best bound 4.988971884325e+08, gap 0.0000%

Gurobi 8.1.1 (win64, Python) logging started 04/30/20 11:28:25

Academic license - for non-commercial use only
Optimize a model with 465 rows, 1700 columns and 5310 nonzeros
Variable types: 1520 continuous, 180 integer (0 binary)
Coefficient statistics:
  Matrix range     [1e+00, 7e+03]
  Objective range  [2e-02, 1e-01]
  Bounds range     [0e+00, 0e+00]
  RHS range        [7e+05, 3e+08]
Found heuristic solution: objective -2.09130e+09
Presolve removed 465 rows and 1700 columns
Presolve time: 0.02s
Presolve: All rows and columns removed

Explored 0 nodes (0 simplex iterations) in 0.05 seconds
Thread count was 1 (of 4 available processors)

Solution count 2: 1.76141e+09 -2.0913e+09 

Optimal solution found (tolerance 1.00e-04)
Best objective 1.761414016389e+09, best bound 1.761414016389e+09, gap 0.0000%
Optimize a model with 465 rows, 1700 columns and 5310 nonzeros
Variable types: 1520 continuous, 180 integer (0 binary)
Coefficient statistics:
  Matrix range     [1e+00, 7e+03]
  Objective range  [2e-02, 1e-01]
  Bounds range     [0e+00, 0e+00]
  RHS range        [7e+05, 3e+08]
Found heuristic solution: objective -2.09130e+09
Presolve removed 465 rows and 1700 columns
Presolve time: 0.01s
Presolve: All rows and columns removed

Explored 0 nodes (0 simplex iterations) in 0.05 seconds
Thread count was 1 (of 4 available processors)

Solution count 2: 1.76141e+09 -2.0913e+09 

Optimal solution found (tolerance 1.00e-04)
Best objective 1.761414016389e+09, best bound 1.761414016389e+09, gap 0.0000%
